0 279 2 278 204 173 100 99 91 97 92 169 232 247 276 18 22 17 130 134 269 16 272 258 265 149 151 177 150 132 133 12 14 131 30 32 68 83 161 175 118 158 109 172 114 60 40 39 37 42 41 119 274 273 255 210 224 207 253 263 25 21 26 44 88 103 106 121 122 152 142 145 163 104 102 171 101 170 188 190 187 162 164 105 96 98 167 117 62 65 80 81 89 159 176 181 184 196 197 198 143 4 275 5 13 128 127 153 136 206 254 228 236 230 262 110 72 69 71 61 59 157 194 212 213 248 242 241 244 183 186 57 55 56 116 257 261 259 205 252 208 251 235 250 270 11 23 24 29 45 47 43 67 79 90 94 75 86 84 70 74 77 76 168 180 178 216 217 234 227 246 31 33 35 36 50 51 48 49 52 54 53 58 156 146 147 141 138 19 20 124 28 34 38 108 165 179 85 64 174 182 219 215 223 226 209 140 264 266 111 87 112 107 185 144 218 220 193 191 192 63 73 66 46 120 125 123 27 126 129 154 113 115 82 95 93 78 155 148 139 201 199 195 200 137 135 268 249 229 240 237 233 225 231 1 277 256 260 15 267 271 10 238 239 243 245 221 222 211 203 189 166 160 202 214 9 7 6 8 3
0 279 2 278 204 173 100 99 91 97 92 169 232 247 276 18 22 17 130 134 269 16 272 258 265 149 151 177 150 132 133 12 14 131 30 32 68 83 161 175 118 158 109 172 114 60 40 39 37 42 41 119 274 273 255 210 224 207 253 263 25 21 26 44 88 103 106 121 122 152 142 145 163 104 102 171 101 170 188 190 187 162 164 105 96 98 167 117 62 65 80 81 89 159 176 181 184 196 197 198 143 4 275 5 13 128 127 153 136 206 254 228 236 230 262 110 72 69 71 61 59 157 194 212 213 248 242 241 244 183 186 57 55 56 116 257 261 259 205 252 208 251 235 250 270 11 23 24 29 45 47 43 67 79 90 94 75 86 84 70 74 77 76 166 168 180 178 216 217 234 227 246 31 33 35 36 50 51 48 49 52 54 53 58 156 146 147 141 138 19 20 124 28 34 38 108 165 179 85 64 174 182 219 215 223 226 209 140 264 266 111 87 112 107 185 144 218 220 193 191 192 63 73 66 46 120 125 123 27 126 129 154 113 115 82 95 93 78 155 148 139 201 199 195 200 137 135 268 249 229 240 237 233 225 231 1 277 256 260 15 267 271 10 238 239 243 245 221 222 211 203 189 160 202 214 9 7 6 8 3
0 279 2 278 204 173 100 99 91 97 92 169 232 247 276 18 22 17 130 134 269 16 272 258 265 149 151 177 150 132 133 12 14 131 30 32 68 83 161 175 118 158 109 172 114 60 40 39 37 42 41 119 274 273 255 210 224 207 253 263 25 21 26 44 88 103 106 121 122 152 142 145 165 104 102 171 101 170 188 190 187 162 164 105 96 98 167 117 62 65 80 81 89 159 176 181 184 196 197 198 143 4 275 5 13 128 127 153 136 206 254 228 236 230 262 110 72 69 71 61 59 157 194 212 213 248 242 241 244 183 186 57 55 56 116 257 261 259 205 252 208 251 235 250 270 11 23 24 29 45 47 43 67 79 90 94 75 86 84 70 74 77 76 166 168 180 178 216 217 234 227 246 31 33 35 36 50 51 48 49 52 54 53 58 156 146 147 141 138 19 20 124 28 34 38 108 163 179 85 64 174 182 219 215 223 226 209 140 264 266 111 87 112 107 185 144 218 220 193 191 192 63 73 66 46 120 125 123 27 126 129 154 113 115 82 95 93 78 155 148 139 201 199 195 200 137 135 268 249 229 240 237 233 225 231 1 277 256 260 15 267 271 10 238 239 243 245 221 222 211 203 189 160 202 214 9 7 6 8 3
0 279 2 278 204 173 100 99 91 97 92 169 232 247 276 18 22 17 130 134 269 16 272 258 265 149 151 177 150 132 133 12 14 131 30 32 68 83 161 175 118 158 109 172 114 60 40 39 37 42 41 119 274 273 255 210 224 207 253 263 25 21 26 44 88 103 106 121 122 152 142 145 104 102 171 101 170 188 190 187 162 165 164 105 96 98 167 117 62 65 80 81 89 159 176 181 184 196 197 198 143 4 275 5 13 128 127 153 136 206 254 228 236 230 262 110 72 69 71 61 59 157 194 212 213 248 242 241 244 183 186 57 55 56 116 257 261 259 205 252 208 251 235 250 270 11 23 24 29 45 47 43 67 79 90 94 75 86 84 70 74 77 76 166 168 180 178 216 217 234 227 246 31 33 35 36 50 51 48 49 52 54 53 58 156 146 147 141 138 19 20 124 28 34 38 108 163 179 85 64 174 182 219 215 223 226 209 140 264 266 111 87 112 107 185 144 218 220 193 191 192 63 73 66 46 120 125 123 27 126 129 154 113 115 82 95 93 78 155 148 139 201 199 195 200 137 135 268 249 229 240 237 233 225 231 1 277 256 260 15 267 271 10 238 239 243 245 221 222 211 203 189 160 202 214 9 7 6 8 3
0 279 2 278 204 173 100 99 91 97 92 169 232 247 276 18 22 17 130 134 269 16 272 258 265 149 151 177 150 132 133 12 14 131 30 32 68 83 161 175 118 158 109 172 114 60 40 39 37 42 41 119 274 273 255 210 224 207 253 263 25 21 26 44 88 103 106 121 122 152 142 145 104 102 171 101 170 188 190 187 162 165 164 105 96 98 167 117 62 65 80 81 89 159 176 181 184 196 197 198 143 4 275 5 13 128 127 153 136 206 254 228 236 230 262 110 72 69 71 61 59 157 194 212 213 248 242 241 244 183 186 57 55 56 116 257 261 259 205 252 208 251 235 250 270 11 23 24 29 45 47 43 67 79 90 94 75 86 84 70 74 77 76 166 168 180 178 216 217 234 227 246 31 33 35 36 50 51 48 49 52 54 53 58 156 146 147 141 138 19 20 124 28 34 38 108 163 179 85 64 174 182 219 215 223 226 209 140 264 266 111 87 112 107 185 144 218 220 193 191 192 63 73 66 46 120 125 123 27 126 129 154 113 115 82 95 93 78 155 148 139 201 199 195 200 137 135 268 249 245 240 237 233 225 231 1 277 256 260 15 267 271 10 238 239 243 229 221 222 211 203 189 160 202 214 9 7 6 8 3
0 279 2 278 204 173 100 99 91 97 92 169 232 247 276 18 22 17 130 134 269 16 272 258 265 149 151 177 150 132 133 12 14 131 30 32 68 83 161 175 118 158 109 172 114 60 40 39 37 42 41 119 274 273 255 210 224 207 253 263 25 21 26 44 88 103 106 121 122 152 142 145 163 104 102 171 101 170 188 190 187 162 164 105 96 98 167 117 62 65 80 81 89 159 176 181 184 196 197 198 143 4 275 5 13 128 127 153 136 206 254 228 236 230 262 110 72 69 71 61 59 157 194 212 213 248 242 241 244 183 186 57 55 56 116 257 261 259 205 252 208 251 235 250 270 11 23 24 29 45 47 43 67 79 90 94 75 86 84 70 74 77 76 166 168 165 180 178 216 217 234 227 246 31 33 35 36 50 51 48 49 52 54 53 58 156 146 147 141 138 19 20 124 28 34 38 108 179 85 64 174 182 219 215 223 226 209 140 264 266 111 87 112 107 185 144 218 220 193 191 192 63 73 66 46 120 125 123 27 126 129 154 113 115 82 95 93 78 155 148 139 201 199 195 200 137 135 268 249 245 240 237 233 225 231 1 277 256 260 15 267 271 10 238 239 243 229 221 222 211 203 189 160 202 214 9 7 6 8 3
0 279 2 278 204 173 100 99 91 97 92 169 232 247 276 18 22 17 130 134 269 16 272 258 265 149 151 177 150 132 133 12 14 131 30 32 68 83 161 175 118 158 109 172 114 60 40 39 37 42 41 119 274 273 255 210 224 207 253 263 25 21 26 44 88 103 106 121 122 152 142 145 163 104 102 171 101 170 188 190 187 162 164 105 96 98 167 117 62 65 80 81 89 159 176 181 184 196 197 198 143 4 275 5 13 128 127 153 136 206 254 228 236 230 262 110 72 69 71 61 59 157 194 212 213 248 242 241 244 183 186 57 55 56 116 257 261 259 205 252 208 251 235 250 270 11 23 24 29 45 47 43 67 79 90 94 75 86 84 70 74 77 76 166 168 165 180 178 216 217 234 227 246 31 33 35 36 50 51 48 49 52 54 53 58 156 146 147 141 138 19 20 124 28 34 38 108 179 85 64 174 182 219 215 223 226 209 140 264 266 111 87 112 107 185 144 218 220 193 191 192 63 73 66 46 120 125 123 27 126 129 154 113 115 82 95 93 78 155 148 139 201 199 195 200 137 135 268 249 245 240 237 233 225 231 1 277 256 260 15 267 271 10 238 239 243 229 221 222 214 203 189 160 202 211 9 7 6 8 3
0 279 2 278 204 173 100 99 91 97 92 169 232 247 276 18 22 17 130 134 269 16 272 258 265 149 151 177 150 132 133 12 14 131 30 32 68 83 161 175 118 158 109 172 114 60 40 39 37 42 41 119 274 273 255 210 224 235 253 263 25 21 26 44 88 103 106 121 122 152 142 194 163 104 102 171 101 170 188 190 187 162 164 105 96 98 167 117 62 65 80 81 89 159 176 181 184 196 197 198 143 4 275 5 13 128 127 153 136 206 254 228 236 230 262 110 72 69 71 61 59 157 145 212 213 248 242 241 244 183 186 57 55 56 116 257 261 259 205 252 208 251 207 250 270 11 23 24 29 45 47 43 67 79 90 94 75 86 84 70 74 77 76 166 168 165 180 178 216 217 234 227 246 31 33 35 36 50 51 48 49 52 54 53 58 156 146 147 141 138 19 20 124 28 34 38 108 179 85 64 174 182 219 215 223 226 209 140 264 266 111 87 112 107 185 144 218 220 193 191 192 63 73 66 46 120 125 123 27 126 129 154 113 115 82 95 93 78 155 148 139 201 199 195 200 137 135 268 249 245 240 237 233 225 231 1 277 256 260 15 267 271 10 238 239 243 229 221 222 214 203 189 160 202 211 9 7 6 8 3
0 279 2 278 204 173 100 99 91 97 92 169 232 247 276 18 22 17 130 134 269 16 272 258 265 149 151 177 150 132 133 12 14 131 30 32 68 83 161 175 118 158 109 172 114 60 40 39 37 42 41 119 274 273 255 210 224 207 253 263 25 21 26 44 88 103 106 121 122 152 142 145 163 104 102 171 101 170 188 190 187 162 164 105 96 98 167 117 62 65 80 81 89 159 176 181 184 196 197 198 143 4 275 5 13 128 127 153 136 206 254 228 236 230 262 110 72 69 71 61 59 157 194 212 213 248 242 241 244 183 186 57 55 56 116 257 261 259 205 252 208 251 235 250 270 11 23 24 29 45 47 43 67 79 90 94 75 86 84 70 74 77 76 166 168 165 180 178 216 217 234 227 246 31 33 35 36 50 51 48 49 52 54 53 58 156 146 147 141 138 19 20 124 28 34 38 108 179 85 64 174 182 219 215 223 226 209 140 264 266 111 87 112 107 185 144 218 220 193 191 192 63 73 66 46 120 125 123 27 126 129 154 113 115 82 95 93 78 155 148 139 201 199 195 200 137 135 268 249 245 240 237 233 225 231 1 277 256 260 15 267 271 10 238 239 243 229 221 222 214 211 203 189 160 202 9 7 6 8 3
0 279 2 278 204 173 100 99 91 97 92 169 232 247 276 18 22 17 130 134 269 16 272 258 265 149 151 177 150 132 133 12 14 131 30 32 68 83 161 175 118 158 109 172 114 60 40 39 37 42 41 119 274 273 255 210 224 235 253 263 25 21 26 44 88 103 106 121 122 152 142 194 163 104 102 171 101 170 188 190 187 162 164 105 96 98 167 117 62 65 80 81 89 159 176 181 184 196 197 198 143 4 275 5 13 128 127 153 136 206 254 228 236 230 262 110 72 69 71 61 59 157 145 212 213 248 242 241 244 183 186 57 55 56 116 257 261 259 205 252 207 208 251 250 270 11 23 24 29 45 47 43 67 79 90 94 75 86 84 70 74 77 76 166 168 165 180 178 216 217 234 227 246 31 33 35 36 50 51 48 49 52 54 53 58 156 146 147 141 138 19 20 124 28 34 38 108 179 85 64 174 182 219 215 223 226 209 140 264 266 111 87 112 107 185 144 220 218 193 191 192 63 73 66 46 120 125 123 27 126 129 154 113 115 82 95 93 78 155 148 139 201 199 195 200 137 135 268 249 245 240 237 233 225 231 1 277 256 260 15 267 271 10 238 239 243 229 221 222 214 211 203 189 160 202 9 7 6 8 3
0 279 2 278 204 173 100 99 91 97 92 169 232 247 276 18 22 17 130 134 269 16 272 258 265 149 151 177 150 132 133 12 14 131 30 32 68 83 161 175 118 158 109 172 114 60 40 39 37 42 41 119 274 273 255 210 224 235 253 263 25 21 26 44 88 103 106 121 122 152 142 194 163 104 102 171 101 170 188 190 187 162 164 105 96 98 167 117 62 65 80 81 89 159 176 181 184 196 197 198 143 4 275 5 13 128 127 153 136 206 254 228 236 230 262 110 72 69 71 61 59 157 145 212 213 248 242 241 244 183 186 57 55 56 116 257 261 259 205 252 207 208 251 250 270 11 23 24 29 45 47 43 67 79 90 94 75 86 84 70 74 77 76 166 168 165 180 178 216 217 234 227 246 31 33 35 36 50 51 48 49 52 54 53 58 156 146 147 141 138 19 20 124 28 34 38 108 179 85 64 174 182 219 215 223 226 209 140 264 266 111 87 112 107 185 144 218 220 193 191 192 63 73 66 46 120 125 123 27 126 129 154 113 115 82 95 93 78 155 148 139 201 199 195 200 137 135 268 249 245 240 237 233 225 231 1 277 256 260 15 267 271 10 238 239 243 229 221 222 214 211 203 189 160 202 9 7 6 8 3
0 279 2 278 204 173 100 99 91 97 92 169 232 247 276 18 22 17 130 134 269 16 272 258 265 149 151 177 150 132 133 12 14 131 30 32 68 83 161 175 118 158 109 172 114 60 40 39 37 42 41 119 274 273 255 210 224 235 253 263 25 21 26 44 88 103 106 121 122 152 142 194 163 104 102 171 101 170 188 190 187 162 164 105 96 98 167 117 62 65 80 81 89 159 176 181 184 196 197 198 143 4 275 5 13 128 127 153 136 206 254 228 236 230 262 110 72 69 71 61 59 157 145 212 213 248 242 241 244 183 186 57 55 56 116 257 261 259 205 252 207 208 251 250 246 11 23 24 29 45 47 43 67 79 90 94 75 86 84 70 74 77 76 166 168 165 180 178 216 217 234 227 270 31 33 35 36 50 51 48 49 52 54 53 58 156 146 147 141 138 19 20 124 28 34 38 108 179 85 64 174 182 219 215 223 226 209 140 264 266 111 87 112 107 185 144 218 220 193 191 192 63 73 66 46 120 125 123 27 126 129 154 113 115 82 95 93 78 155 148 139 201 199 195 200 137 135 268 249 245 240 237 233 225 231 1 277 256 260 15 267 271 10 238 239 243 229 221 222 214 211 203 189 160 202 9 7 6 8 3
0 279 2 278 204 173 100 99 91 97 92 169 232 247 276 18 22 17 130 134 269 16 272 258 265 149 151 177 150 132 133 12 14 131 30 32 68 83 161 175 118 158 172 109 114 60 40 39 37 42 41 119 274 273 255 210 224 235 253 263 25 21 26 44 88 103 106 121 122 152 142 194 163 104 102 171 101 170 188 190 187 162 164 105 96 98 167 117 62 65 80 81 89 159 176 181 184 196 197 198 143 4 275 5 13 128 127 153 136 206 254 228 236 230 262 110 72 69 71 61 59 157 145 212 213 248 242 241 244 183 186 57 55 56 116 257 261 259 205 252 207 208 251 250 246 11 23 24 29 45 47 43 67 79 90 94 75 86 84 70 74 77 76 166 168 165 180 178 216 217 234 227 270 31 33 35 36 50 51 48 49 52 54 53 58 156 146 147 141 138 19 20 124 28 34 38 108 179 85 64 174 182 219 215 223 226 209 140 264 266 111 87 112 107 185 144 218 220 193 191 192 63 73 66 46 120 125 123 27 126 129 154 113 115 82 95 93 78 155 148 139 201 199 195 200 137 135 268 249 245 240 237 233 225 231 1 277 256 260 15 267 271 10 238 239 243 229 221 222 214 211 203 189 160 202 9 7 6 8 3
0 279 2 278 204 173 100 99 91 97 92 169 232 247 276 18 22 17 130 134 269 16 272 258 265 149 151 177 150 132 133 12 14 131 30 32 68 83 161 175 118 179 172 109 114 60 40 39 37 42 41 119 274 273 255 210 224 235 253 263 25 21 26 44 88 103 106 121 122 152 142 194 163 104 102 171 101 170 188 190 187 162 164 105 96 98 167 117 62 65 80 81 89 159 176 181 184 196 197 198 143 4 275 5 13 128 127 153 136 206 254 228 236 230 262 110 72 69 71 61 59 157 145 212 213 248 242 241 244 183 186 57 55 56 116 257 261 259 205 252 207 208 251 250 246 11 23 24 29 45 47 43 67 79 90 94 75 86 84 70 74 77 76 166 168 165 180 178 216 217 234 227 270 31 33 35 36 50 51 48 49 52 54 53 58 156 146 147 141 138 19 20 124 28 34 38 108 158 85 64 174 182 219 215 223 226 209 140 264 266 111 87 112 107 185 144 218 220 193 191 192 63 73 66 46 120 125 123 27 126 129 154 113 115 82 95 93 78 155 148 139 201 199 195 200 137 135 268 249 245 240 237 233 225 231 1 277 256 260 15 267 271 10 238 239 243 229 221 222 214 211 203 189 160 202 9 7 6 8 3
0 279 2 278 204 173 100 99 91 97 92 169 232 247 276 18 22 17 130 134 269 16 272 258 265 149 151 177 150 132 133 12 14 131 30 32 68 102 161 175 118 158 172 109 114 60 40 39 37 42 41 119 274 273 255 210 224 235 253 263 25 21 26 44 88 103 106 121 122 152 142 194 163 104 83 171 101 170 188 190 187 162 164 105 96 98 167 117 62 65 80 81 89 159 176 181 184 196 197 198 143 4 275 5 13 128 127 153 136 206 254 228 236 230 262 110 72 69 71 61 59 157 145 212 213 248 242 241 244 183 186 57 55 56 116 257 261 259 205 252 207 208 251 250 246 11 23 24 29 45 47 43 67 79 90 94 75 86 84 70 74 77 76 166 168 165 179 180 178 216 217 234 227 270 31 33 35 36 50 51 48 49 52 54 53 58 156 146 147 141 138 19 20 124 28 34 38 108 85 64 174 182 219 215 223 226 209 140 264 266 111 87 112 107 185 144 218 220 193 191 192 63 73 66 46 120 125 123 27 126 129 154 113 115 82 95 93 78 155 148 139 201 199 195 200 137 135 268 249 245 240 237 233 225 231 1 277 256 260 15 267 271 10 238 239 243 229 221 222 214 211 203 189 160 202 9 7 6 8 3
0 279 2 278 204 173 100 99 91 97 92 169 232 247 276 18 22 17 130 134 269 16 272 258 265 149 151 177 150 132 133 12 14 131 30 32 68 83 161 175 118 158 172 109 114 60 40 39 37 42 41 119 274 273 255 210 224 235 253 263 25 21 26 44 88 103 106 121 122 152 142 194 163 104 102 171 101 170 188 190 187 162 164 105 96 98 167 117 62 65 80 81 89 159 176 181 184 196 197 198 143 4 275 5 13 128 127 153 136 206 254 228 236 230 262 110 72 69 71 61 59 157 145 212 213 248 242 241 244 183 186 57 55 56 116 257 261 259 205 252 207 208 251 250 246 11 23 24 29 45 47 43 67 79 90 94 75 86 84 70 74 77 76 166 168 165 179 180 178 216 217 234 227 270 31 33 35 36 50 51 48 49 52 54 53 58 156 146 147 141 138 19 20 124 28 34 38 108 85 64 174 182 219 215 223 226 209 140 264 266 111 87 112 107 185 144 218 220 193 191 192 63 73 66 46 120 125 123 27 126 129 154 113 115 82 95 93 78 155 148 139 201 199 195 200 137 135 268 249 245 240 237 233 225 231 1 277 256 260 15 267 271 10 238 239 243 229 221 222 214 211 203 189 160 202 9 7 6 8 3
0 279 2 278 204 173 100 99 91 97 92 169 232 247 276 18 22 17 130 134 269 16 272 258 265 149 151 177 150 132 133 12 14 131 30 32 68 83 161 175 118 158 172 109 114 60 40 39 37 42 41 119 274 273 255 210 224 235 253 263 25 21 26 44 88 103 106 121 122 152 142 194 105 104 102 171 101 170 188 190 187 162 164 163 96 98 167 117 62 65 80 81 89 159 176 181 184 196 197 198 143 4 275 5 13 128 127 153 136 206 254 228 236 230 262 110 72 69 71 61 59 157 145 212 213 248 242 241 244 183 186 57 55 56 116 257 261 259 205 252 207 208 251 250 246 11 23 24 29 45 47 43 67 79 90 94 75 86 84 70 74 77 76 166 168 165 179 180 178 216 217 234 227 270 31 33 35 36 50 51 48 49 52 54 53 58 156 146 147 141 138 19 20 124 28 34 38 108 85 64 174 182 219 215 223 226 209 140 264 266 111 87 112 107 185 144 218 220 193 191 192 63 73 66 46 120 125 123 27 126 129 154 113 115 82 95 93 78 155 148 139 201 199 195 200 137 135 268 249 245 240 237 233 225 231 1 277 256 260 15 267 271 10 238 239 243 229 221 222 214 211 203 189 160 202 9 7 6 8 3
0 279 2 278 204 173 100 99 91 97 92 169 232 247 276 18 22 17 130 134 269 16 272 258 265 149 151 177 150 132 133 12 14 131 30 32 68 83 161 175 118 158 172 109 114 60 40 39 37 42 41 119 274 273 255 210 224 235 253 263 25 21 26 44 88 103 106 121 122 152 142 194 105 104 102 171 101 170 188 190 187 162 164 163 96 98 167 117 62 65 80 81 89 159 176 181 184 196 197 198 143 4 275 5 13 128 127 153 136 206 254 228 236 230 262 110 72 69 71 61 59 157 145 212 213 248 242 241 244 183 186 57 55 56 116 257 256 259 205 252 207 208 251 250 246 11 23 24 29 45 47 43 67 79 90 94 75 86 84 70 74 77 76 166 168 165 179 180 178 216 217 234 227 270 31 33 35 36 50 51 48 49 52 54 53 58 156 146 147 141 138 19 20 124 28 34 38 108 85 64 174 182 219 215 223 226 209 140 264 266 111 87 112 107 185 144 218 220 193 191 192 63 73 66 46 120 125 123 27 126 129 154 113 115 82 95 93 78 155 148 139 201 199 195 200 137 135 268 249 245 240 237 233 225 231 1 277 261 260 15 267 271 10 238 239 243 229 221 222 214 211 203 189 160 202 9 7 6 8 3
0 279 2 278 204 173 100 99 91 97 92 169 232 247 276 18 22 17 130 134 269 16 272 258 265 149 151 177 150 132 133 12 14 131 30 32 68 83 161 175 118 158 172 109 114 60 40 39 37 42 41 119 274 273 255 210 224 235 253 263 25 21 26 44 88 103 106 121 122 152 142 194 105 104 102 171 101 170 188 190 187 162 164 163 96 98 167 117 62 65 80 81 89 159 176 181 184 196 197 198 143 4 275 5 13 128 127 153 136 206 254 228 236 230 262 110 72 69 71 61 59 157 145 212 213 248 242 241 244 183 186 57 55 56 116 257 261 259 205 252 207 208 251 250 246 11 23 24 29 45 47 43 67 79 90 94 75 86 84 70 74 77 76 166 168 165 179 180 178 216 217 234 227 270 31 33 35 36 50 51 48 49 52 54 53 58 156 146 147 141 138 19 20 124 28 34 38 108 85 64 174 182 219 215 223 226 209 140 264 266 111 87 112 107 185 144 218 220 193 191 192 63 73 66 46 120 125 123 27 126 129 154 113 115 82 95 93 78 155 148 139 201 199 195 200 137 135 268 256 249 245 240 237 233 225 231 1 277 260 15 267 271 10 238 239 243 229 221 222 214 211 203 189 160 202 9 7 6 8 3
0 279 2 278 204 173 100 99 91 97 92 169 232 247 276 18 22 17 130 134 269 16 272 258 265 149 151 177 150 132 133 12 14 131 30 32 68 83 161 175 118 158 172 109 114 60 40 39 37 42 41 119 274 273 255 210 224 235 253 263 25 21 26 44 88 103 106 121 122 152 142 194 105 104 102 171 101 166 188 190 187 162 164 163 96 98 167 117 62 65 80 81 89 159 176 181 184 196 197 198 143 4 275 5 13 128 127 153 136 206 254 228 236 230 262 110 72 69 71 61 59 157 145 212 213 248 242 241 244 183 186 57 55 56 116 257 261 259 205 252 207 208 251 250 246 11 23 24 29 45 47 43 67 79 90 94 75 86 84 70 74 77 76 170 168 165 179 180 178 216 217 234 227 270 31 33 35 36 50 51 48 49 52 54 53 58 156 146 147 141 138 19 20 124 28 34 38 108 85 64 174 182 219 215 223 226 209 140 264 266 111 87 112 107 185 144 218 220 193 191 192 63 73 66 46 120 125 123 27 126 129 154 113 115 82 95 93 78 155 148 139 201 199 195 200 137 135 268 256 249 245 240 237 233 225 231 1 277 260 15 267 271 10 238 239 243 229 221 222 214 211 203 189 160 202 9 7 6 8 3
